(set-logic QF_S)
(declare-fun var0 () String)
(assert (str.in.re var0 (re.++ (re.* (re.+ (str.to.re "00"))) (re.++ (re.* (re.union (str.to.re "1") (str.to.re "222"))) (re.++ (re.union (re.* (str.to.re "3")) (re.* (str.to.re "4"))) (re.++ (re.union (re.+ (str.to.re "55")) (re.+ (str.to.re "66"))) (re.++ (re.union (re.* (str.to.re "777")) (re.* (str.to.re "888"))) (re.++ (re.+ (re.* (str.to.re "9"))) (re.++ (re.* (re.union (str.to.re "aa") (str.to.re "bbb"))) (re.union (re.union (str.to.re "ccc") (str.to.re "d")) (re.union (str.to.re "eee") (str.to.re "f"))))))))))))
(check-sat)